system 
1.0
      8.151499748000     0.000000000000     0.000000000000
      0.000000000000     8.151399612000     0.000000000000
      2.037874365000    -2.037850356000     9.268600341000
  La Se Fe O
  8 8 8 12
Direct
      0.342030035000     0.157969920000     0.631879780000
      0.342030035000     0.657969920000     0.631879780000
      0.842030035000     0.157969920000     0.631879780000
      0.842030035000     0.657969920000     0.631879780000
      0.157970045000     0.342029910000     0.368119730000
      0.157970045000     0.842029910000     0.368119730000
      0.657970045000     0.342029910000     0.368119730000
      0.657970045000     0.842029910000     0.368119730000
      0.451910045000     0.048089910000     0.192359740000
      0.451910045000     0.548089910000     0.192359740000
      0.951910045000     0.048089910000     0.192359740000
      0.951910045000     0.548089910000     0.192359740000
      0.048090025000     0.451909930000     0.807639810000
      0.048090025000     0.951909930000     0.807639810000
      0.548090025000     0.451909930000     0.807639810000
      0.548090025000     0.951909930000     0.807639810000
      0.000000000000     0.249999955000     0.000000000000
      0.000000000000     0.749999955000     0.000000000000
      0.500000000000     0.249999955000     0.000000000000
      0.500000000000     0.749999955000     0.000000000000
      0.250000000000     0.000000000000     0.000000000000
      0.250000000000     0.500000000000     0.000000000000
      0.750000000000     0.000000000000     0.000000000000
      0.750000000000     0.500000000000     0.000000000000
      0.250000000000     0.249999955000     0.000000000000
      0.250000000000     0.749999955000     0.000000000000
      0.750000000000     0.249999955000     0.000000000000
      0.750000000000     0.749999955000     0.000000000000
      0.125000035000     0.124999920000     0.499999780000
      0.125000035000     0.624999920000     0.499999780000
      0.625000035000     0.124999920000     0.499999780000
      0.625000035000     0.624999920000     0.499999780000
      0.375000035000     0.374999920000     0.499999780000
      0.375000035000     0.874999920000     0.499999780000
      0.875000035000     0.374999920000     0.499999780000
      0.875000035000     0.874999920000     0.499999780000
