DyAgGe
  1.00000000000000
    7.07801896164900    0.00000000000000    0.00000000000000
   -3.53900948082450    6.12974422925599    0.00000000000000
    0.00000000000000    0.00000000000000    4.18440008160000
Dy Ag Ge
3 3 3
direct
    0.00000000000000    0.41899996950000    0.00000000000000
    0.41899996950000    0.00000000000000    0.00000000000000
    0.58100003050000    0.58100003050000    0.00000000000000
    0.75399991950000    0.00000000000000    0.50000000000000
    0.00000000000000    0.75399991950000    0.50000000000000
    0.24600008050000    0.24600008050000    0.50000000000000
    0.66666666666667    0.33333333333333    0.50000000000000
    0.00000000000000    0.00000000000000    0.00000000000000
    0.33333333333333    0.66666666666667    0.50000000000000
